Translating instance to solver...

GLPSOL--GLPK LP/MIP Solver 5.0
Parameter(s) specified in the command line:
 --tmlim 28800 --mipgap 0.0 --write /tmp/tmpmnxecbf7.glpk.raw --wglp /tmp/tmpc0m4j_3l.glpk.glp
 --cpxlp /tmp/tmpf4zgadq3.pyomo.lp
Reading problem data from '/tmp/tmpf4zgadq3.pyomo.lp'...
/tmp/tmpf4zgadq3.pyomo.lp:354635: warning: lower bound of variable 'x2' redefined
/tmp/tmpf4zgadq3.pyomo.lp:354635: warning: upper bound of variable 'x2' redefined
61056 rows, 30652 columns, 140652 non-zeros
30652 integer variables, 30600 of which are binary
385235 lines were read
Writing problem data to '/tmp/tmpc0m4j_3l.glpk.glp'...
275452 lines were written
GLPK Integer Optimizer 5.0
61056 rows, 30652 columns, 140652 non-zeros
30652 integer variables, 30600 of which are binary
Preprocessing...
200 hidden packing inequaliti(es) were detected
10000 hidden covering inequaliti(es) were detected
100 constraint coefficient(s) were reduced
36921 rows, 14686 columns, 92455 non-zeros
14686 integer variables, 14635 of which are binary
Scaling...
 A: min|aij| =  1.000e+00  max|aij| =  5.100e+01  ratio =  5.100e+01
GM: min|aij| =  5.305e-01  max|aij| =  1.885e+00  ratio =  3.553e+00
EQ: min|aij| =  2.893e-01  max|aij| =  1.000e+00  ratio =  3.457e+00
2N: min|aij| =  2.500e-01  max|aij| =  1.375e+00  ratio =  5.500e+00
Constructing initial basis...
Size of triangular part is 36921
Solving LP relaxation...
GLPK Simplex Optimizer 5.0
36921 rows, 14686 columns, 92455 non-zeros
      0: obj =   0.000000000e+00 inf =   8.109e+01 (105)
    680: obj =   3.626365335e+00 inf =   3.095e-15 (0) 3
Perturbing LP to avoid stalling [1916]...
Removing LP perturbation [3034]...
*  3034: obj =   1.176423000e+00 inf =   4.128e-16 (0) 7
OPTIMAL LP SOLUTION FOUND
Integer optimization begins...
Long-step dual simplex will be used
+  3034: mip =     not found yet >=              -inf        (1; 0)
+  4833: mip =     not found yet >=   1.176423000e+00        (26; 1)
+  6572: mip =     not found yet >=   1.176423000e+00        (38; 2)
+  7679: mip =     not found yet >=   1.176423000e+00        (65; 2)
+  8383: mip =     not found yet >=   1.176423000e+00        (106; 3)
+  9745: mip =     not found yet >=   1.176423000e+00        (139; 4)
+ 10997: mip =     not found yet >=   1.176423000e+00        (158; 5)
+ 11933: mip =     not found yet >=   1.176423000e+00        (176; 5)
+ 12865: mip =     not found yet >=   1.176423000e+00        (189; 6)
+ 13056: mip =     not found yet >=   1.176423000e+00        (219; 6)
+ 13834: mip =     not found yet >=   1.176423000e+00        (249; 7)
+ 14944: mip =     not found yet >=   1.176423000e+00        (261; 8)
Time used: 60.1 secs.  Memory used: 56.3 Mb.
+ 15778: mip =     not found yet >=   1.176423000e+00        (291; 8)
+ 17094: mip =     not found yet >=   1.183057615e+00        (334; 9)
+ 18563: mip =     not found yet >=   1.183057615e+00        (355; 10)
+ 19963: mip =     not found yet >=   1.183057615e+00        (370; 11)
+ 20894: mip =     not found yet >=   1.183057615e+00        (414; 12)
+ 21314: mip =     not found yet >=   1.183057615e+00        (464; 13)
+ 22626: mip =     not found yet >=   1.183057615e+00        (485; 14)
+ 23268: mip =     not found yet >=   1.183057615e+00        (500; 14)
+ 24595: mip =     not found yet >=   1.183057615e+00        (523; 15)
+ 25866: mip =     not found yet >=   1.183057615e+00        (541; 16)
+ 26825: mip =     not found yet >=   1.183057615e+00        (589; 17)
+ 27835: mip =     not found yet >=   1.183057615e+00        (625; 17)
Time used: 120.2 secs.  Memory used: 61.6 Mb.
+ 29287: mip =     not found yet >=   1.183057615e+00        (654; 18)
+ 30375: mip =     not found yet >=   1.183057615e+00        (692; 19)
+ 31503: mip =     not found yet >=   1.183057615e+00        (738; 20)
+ 32912: mip =     not found yet >=   1.183057615e+00        (764; 20)
+ 33021: mip =     not found yet >=   1.183057615e+00        (791; 20)
+ 33992: mip =     not found yet >=   1.183057615e+00        (830; 21)
+ 35176: mip =     not found yet >=   1.183057615e+00        (864; 22)
+ 36010: mip =     not found yet >=   1.183057615e+00        (888; 23)
+ 37029: mip =     not found yet >=   1.183057615e+00        (910; 24)
+ 38728: mip =     not found yet >=   1.183057615e+00        (923; 24)
+ 39305: mip =     not found yet >=   1.183057615e+00        (936; 24)
+ 39925: mip =     not found yet >=   1.183057615e+00        (980; 25)
Time used: 180.2 secs.  Memory used: 65.3 Mb.
+ 40877: mip =     not found yet >=   1.183057615e+00        (1006; 25)
+ 42359: mip =     not found yet >=   1.183057615e+00        (1036; 27)
+ 43686: mip =     not found yet >=   1.183057615e+00        (1078; 28)
+ 44414: mip =     not found yet >=   1.183057615e+00        (1108; 29)
+ 45482: mip =     not found yet >=   1.183057615e+00        (1151; 30)
+ 46113: mip =     not found yet >=   1.183057615e+00        (1212; 31)
+ 47493: mip =     not found yet >=   1.183057615e+00        (1233; 33)
+ 49641: mip =     not found yet >=   1.183057615e+00        (1250; 34)
+ 50845: mip =     not found yet >=   1.183057615e+00        (1275; 34)
+ 51103: mip =     not found yet >=   1.183057615e+00        (1321; 34)
+ 52684: mip =     not found yet >=   1.183057615e+00        (1345; 35)
+ 54231: mip =     not found yet >=   1.183057615e+00        (1384; 36)
Time used: 240.3 secs.  Memory used: 71.4 Mb.
+ 54593: mip =     not found yet >=   1.183057615e+00        (1400; 36)
+ 55469: mip =     not found yet >=   1.183057615e+00        (1425; 37)
+ 56342: mip =     not found yet >=   1.183057615e+00        (1443; 37)
+ 56934: mip =     not found yet >=   1.183057615e+00        (1499; 38)
+ 58053: mip =     not found yet >=   1.183057615e+00        (1538; 39)
+ 59218: mip =     not found yet >=   1.183057615e+00        (1558; 40)
+ 60596: mip =     not found yet >=   1.183057615e+00        (1584; 41)
+ 61409: mip =     not found yet >=   1.183057615e+00        (1627; 42)
+ 62292: mip =     not found yet >=   1.183057615e+00        (1668; 43)
+ 62892: mip =     not found yet >=   1.183057615e+00        (1696; 43)
+ 63834: mip =     not found yet >=   1.183057615e+00        (1724; 44)
Time used: 300.3 secs.  Memory used: 75.2 Mb.
+ 64106: mip =     not found yet >=   1.183057615e+00        (1763; 44)
+ 64146: mip =     not found yet >=   1.183057615e+00        (1803; 44)
+ 64528: mip =     not found yet >=   1.183057615e+00        (1838; 44)
+ 65202: mip =     not found yet >=   1.183057615e+00        (1878; 45)
+ 65849: mip =     not found yet >=   1.183057615e+00        (1896; 46)
+ 67237: mip =     not found yet >=   1.183057615e+00        (1936; 47)
+ 68378: mip =     not found yet >=   1.183057615e+00        (1950; 48)
+ 71043: mip =     not found yet >=   1.185791467e+00        (1974; 49)
+ 73263: mip =     not found yet >=   1.187673000e+00        (2004; 51)
+ 76268: mip =     not found yet >=   1.187673000e+00        (2029; 52)
+ 77281: mip =     not found yet >=   1.187673000e+00        (2061; 52)
+ 78508: mip =     not found yet >=   1.187673000e+00        (2102; 53)
Time used: 360.3 secs.  Memory used: 79.5 Mb.
+ 79746: mip =     not found yet >=   1.187673000e+00        (2117; 55)
+ 81295: mip =     not found yet >=   1.187673000e+00        (2148; 56)
+ 82647: mip =     not found yet >=   1.187673000e+00        (2180; 57)
+ 82775: mip =     not found yet >=   1.187673000e+00        (2221; 58)
+ 84222: mip =     not found yet >=   1.189455178e+00        (2244; 59)
+ 85484: mip =     not found yet >=   1.190041421e+00        (2261; 60)
+ 86420: mip =     not found yet >=   1.190041421e+00        (2277; 60)
+ 87282: mip =     not found yet >=   1.190041421e+00        (2304; 60)
+ 88069: mip =     not found yet >=   1.190041421e+00        (2331; 61)
+ 88615: mip =     not found yet >=   1.190041421e+00        (2362; 61)
+ 89998: mip =     not found yet >=   1.190041421e+00        (2385; 62)
+ 91175: mip =     not found yet >=   1.190041421e+00        (2402; 63)
Time used: 420.4 secs.  Memory used: 84.4 Mb.
+ 92040: mip =     not found yet >=   1.190041421e+00        (2421; 64)
+ 92949: mip =     not found yet >=   1.190041421e+00        (2434; 64)
+ 94228: mip =     not found yet >=   1.190041421e+00        (2452; 65)
+ 95651: mip =     not found yet >=   1.190041421e+00        (2498; 66)
+ 97121: mip =     not found yet >=   1.190041421e+00        (2515; 67)
+ 98332: mip =     not found yet >=   1.190041421e+00        (2563; 68)
+ 99372: mip =     not found yet >=   1.190041421e+00        (2604; 69)
+100838: mip =     not found yet >=   1.190041421e+00        (2620; 70)
+101831: mip =     not found yet >=   1.190041421e+00        (2671; 70)
+103172: mip =     not found yet >=   1.190041421e+00        (2688; 71)
+104744: mip =     not found yet >=   1.190041421e+00        (2708; 72)
Time used: 480.5 secs.  Memory used: 92.6 Mb.
+105994: mip =     not found yet >=   1.191020107e+00        (2730; 73)
+106971: mip =     not found yet >=   1.192063244e+00        (2773; 74)
+109016: mip =     not found yet >=   1.192063244e+00        (2825; 75)
+109882: mip =     not found yet >=   1.192063244e+00        (2840; 75)
+110417: mip =     not found yet >=   1.192673000e+00        (2856; 76)
+111673: mip =     not found yet >=   1.192673000e+00        (2880; 76)
+113387: mip =     not found yet >=   1.193298000e+00        (2920; 78)
+113985: mip =     not found yet >=   1.193298000e+00        (2942; 78)
+114022: mip =     not found yet >=   1.193298000e+00        (2979; 78)
+114059: mip =     not found yet >=   1.193298000e+00        (3016; 78)
+114539: mip =     not found yet >=   1.193585409e+00        (3077; 79)
+115521: >>>>>   1.817673000e+00 >=   1.193585409e+00  34.3% (3100; 79)
+117417: mip =   1.817673000e+00 >=   1.194596077e+00  34.3% (1534; 3151)
Time used: 541.0 secs.  Memory used: 97.3 Mb.
+118335: mip =   1.817673000e+00 >=   1.194596077e+00  34.3% (1572; 3151)
+119448: mip =   1.817673000e+00 >=   1.194596077e+00  34.3% (1623; 3152)
+121114: mip =   1.817673000e+00 >=   1.195070260e+00  34.3% (1632; 3155)
+122578: mip =   1.817673000e+00 >=   1.195614176e+00  34.2% (1656; 3156)
+124092: mip =   1.817673000e+00 >=   1.196786924e+00  34.2% (1676; 3158)
+125567: mip =   1.817673000e+00 >=   1.197402730e+00  34.1% (1689; 3160)
+126998: mip =   1.817673000e+00 >=   1.198923000e+00  34.0% (1702; 3161)
+127307: mip =   1.817673000e+00 >=   1.198923000e+00  34.0% (1712; 3161)
+128038: mip =   1.817673000e+00 >=   1.199154481e+00  34.0% (1729; 3162)
+129608: mip =   1.817673000e+00 >=   1.201653583e+00  33.9% (1743; 3163)
+131060: mip =   1.817673000e+00 >=   1.201883526e+00  33.9% (1765; 3164)
Time used: 601.1 secs.  Memory used: 99.9 Mb.
+132681: mip =   1.817673000e+00 >=   1.203038854e+00  33.8% (1777; 3167)
+133462: mip =   1.817673000e+00 >=   1.204036636e+00  33.8% (1790; 3167)
+134670: mip =   1.817673000e+00 >=   1.204505061e+00  33.7% (1806; 3168)
+135704: mip =   1.817673000e+00 >=   1.204505061e+00  33.7% (1822; 3168)
+136573: mip =   1.817673000e+00 >=   1.206134538e+00  33.6% (1834; 3169)
+138457: mip =   1.817673000e+00 >=   1.206958714e+00  33.6% (1848; 3171)
+139251: mip =   1.817673000e+00 >=   1.206958714e+00  33.6% (1864; 3171)
+140925: mip =   1.817673000e+00 >=   1.209725980e+00  33.4% (1884; 3173)
+141897: mip =   1.817673000e+00 >=   1.210173000e+00  33.4% (1902; 3174)
+143367: mip =   1.817673000e+00 >=   1.210696256e+00  33.4% (1954; 3176)
+144878: mip =   1.817673000e+00 >=   1.210696256e+00  33.4% (1976; 3177)
+145819: mip =   1.817673000e+00 >=   1.210696256e+00  33.4% (1983; 3177)
Time used: 661.2 secs.  Memory used: 110.1 Mb.
+147240: mip =   1.817673000e+00 >=   1.212500586e+00  33.3% (1993; 3179)
+149117: mip =   1.817673000e+00 >=   1.212706113e+00  33.3% (2006; 3180)
+150234: mip =   1.817673000e+00 >=   1.213387286e+00  33.2% (2033; 3182)
+151917: mip =   1.817673000e+00 >=   1.213387286e+00  33.2% (2046; 3185)
+153211: mip =   1.817673000e+00 >=   1.213387286e+00  33.2% (2057; 3187)
+154346: mip =   1.817673000e+00 >=   1.213995078e+00  33.2% (2067; 3188)
+156005: mip =   1.817673000e+00 >=   1.214263909e+00  33.2% (2100; 3190)
+157502: mip =   1.817673000e+00 >=   1.214345828e+00  33.2% (2129; 3191)
+158898: mip =   1.817673000e+00 >=   1.214587323e+00  33.2% (2174; 3192)
+160570: mip =   1.817673000e+00 >=   1.215467118e+00  33.1% (2197; 3194)
+161391: mip =   1.817673000e+00 >=   1.215636801e+00  33.1% (2254; 3195)
+163117: mip =   1.817673000e+00 >=   1.217673000e+00  33.0% (2269; 3197)
Time used: 721.4 secs.  Memory used: 120.1 Mb.
+164061: mip =   1.817673000e+00 >=   1.217673000e+00  33.0% (2304; 3198)
+165801: mip =   1.817673000e+00 >=   1.217673000e+00  33.0% (2332; 3201)
+166655: mip =   1.817673000e+00 >=   1.217673000e+00  33.0% (2378; 3202)
+167725: mip =   1.817673000e+00 >=   1.217673000e+00  33.0% (2396; 3203)
+168899: mip =   1.817673000e+00 >=   1.217673000e+00  33.0% (2407; 3204)
+170963: mip =   1.817673000e+00 >=   1.217673000e+00  33.0% (2427; 3207)
+171945: mip =   1.817673000e+00 >=   1.217673000e+00  33.0% (2475; 3208)
+172762: mip =   1.817673000e+00 >=   1.217673000e+00  33.0% (2527; 3210)
+175012: mip =   1.817673000e+00 >=   1.217673000e+00  33.0% (2542; 3212)
+176701: mip =   1.817673000e+00 >=   1.217673000e+00  33.0% (2560; 3214)
+178017: mip =   1.817673000e+00 >=   1.217673000e+00  33.0% (2606; 3217)
Time used: 781.5 secs.  Memory used: 130.3 Mb.
+179459: mip =   1.817673000e+00 >=   1.217673000e+00  33.0% (2619; 3218)
+180709: mip =   1.817673000e+00 >=   1.217673000e+00  33.0% (2646; 3220)
+181896: mip =   1.817673000e+00 >=   1.217885917e+00  33.0% (2678; 3221)
+183079: mip =   1.817673000e+00 >=   1.218383900e+00  33.0% (2691; 3223)
+184027: mip =   1.817673000e+00 >=   1.219129311e+00  32.9% (2742; 3224)
+185304: mip =   1.817673000e+00 >=   1.219129311e+00  32.9% (2757; 3225)
+186291: mip =   1.817673000e+00 >=   1.219485689e+00  32.9% (2800; 3226)
+187076: mip =   1.817673000e+00 >=   1.220112024e+00  32.9% (2827; 3228)
+187675: mip =   1.817673000e+00 >=   1.220112024e+00  32.9% (2848; 3229)
+188882: mip =   1.817673000e+00 >=   1.221423000e+00  32.8% (2882; 3231)
+189686: mip =   1.817673000e+00 >=   1.222084765e+00  32.8% (2896; 3233)
+190355: mip =   1.817673000e+00 >=   1.222084765e+00  32.8% (2965; 3234)
Time used: 841.6 secs.  Memory used: 137.2 Mb.
+191460: mip =   1.817673000e+00 >=   1.222084765e+00  32.8% (3017; 3236)
+192543: mip =   1.817673000e+00 >=   1.222084765e+00  32.8% (3063; 3238)
+193765: mip =   1.817673000e+00 >=   1.222084765e+00  32.8% (3106; 3240)
+194437: mip =   1.817673000e+00 >=   1.222084765e+00  32.8% (3144; 3241)
+195360: mip =   1.817673000e+00 >=   1.222084765e+00  32.8% (3213; 3243)
+197187: mip =   1.817673000e+00 >=   1.222084765e+00  32.8% (3255; 3245)
+199064: mip =   1.817673000e+00 >=   1.222084765e+00  32.8% (3273; 3246)
+200863: mip =   1.817673000e+00 >=   1.222845414e+00  32.7% (3286; 3248)
+202008: mip =   1.817673000e+00 >=   1.223442231e+00  32.7% (3297; 3249)
+202730: mip =   1.817673000e+00 >=   1.224074766e+00  32.7% (3302; 3250)
+203745: mip =   1.817673000e+00 >=   1.224138517e+00  32.7% (3316; 3251)
+205130: mip =   1.817673000e+00 >=   1.224409327e+00  32.6% (3324; 3252)
Time used: 901.9 secs.  Memory used: 147.8 Mb.
+206078: mip =   1.817673000e+00 >=   1.224491182e+00  32.6% (3337; 3253)
+207861: mip =   1.817673000e+00 >=   1.224491182e+00  32.6% (3353; 3254)
+209472: mip =   1.817673000e+00 >=   1.224712711e+00  32.6% (3377; 3256)
+210693: mip =   1.817673000e+00 >=   1.224990073e+00  32.6% (3387; 3257)
+212858: mip =   1.817673000e+00 >=   1.225485500e+00  32.6% (3414; 3259)
+214254: mip =   1.817673000e+00 >=   1.225892178e+00  32.6% (3451; 3260)
+214328: mip =   1.817673000e+00 >=   1.225892178e+00  32.6% (3525; 3260)
+214803: mip =   1.817673000e+00 >=   1.225932912e+00  32.6% (3558; 3261)
+216527: mip =   1.817673000e+00 >=   1.226453488e+00  32.5% (3571; 3264)
+217162: mip =   1.817673000e+00 >=   1.226453488e+00  32.5% (3583; 3264)
+218143: mip =   1.817673000e+00 >=   1.226628224e+00  32.5% (3592; 3266)
+219518: mip =   1.817673000e+00 >=   1.226709145e+00  32.5% (3639; 3268)
Time used: 962.2 secs.  Memory used: 157.8 Mb.
+220858: mip =   1.817673000e+00 >=   1.228066701e+00  32.4% (3659; 3270)
+221644: mip =   1.817673000e+00 >=   1.228387286e+00  32.4% (3672; 3271)
+222406: mip =   1.817673000e+00 >=   1.228731882e+00  32.4% (3702; 3272)
+223711: mip =   1.817673000e+00 >=   1.230173000e+00  32.3% (3741; 3273)
+223803: >>>>>   1.673564000e+00 >=   1.230173000e+00  26.5% (3746; 3273)
+224352: mip =   1.673564000e+00 >=   1.230530143e+00  26.5% (2223; 6448)
+226175: mip =   1.673564000e+00 >=   1.231309364e+00  26.4% (2233; 6451)
+227672: mip =   1.673564000e+00 >=   1.231309364e+00  26.4% (2244; 6452)
+229050: mip =   1.673564000e+00 >=   1.231309364e+00  26.4% (2257; 6454)
+230804: mip =   1.673564000e+00 >=   1.231309364e+00  26.4% (2272; 6456)
+232624: mip =   1.673564000e+00 >=   1.231309364e+00  26.4% (2289; 6459)
+234934: mip =   1.673564000e+00 >=   1.231309364e+00  26.4% (2308; 6463)
Time used: 1022.3 secs.  Memory used: 160.7 Mb.
+236539: mip =   1.673564000e+00 >=   1.231488789e+00  26.4% (2318; 6466)
+237277: mip =   1.673564000e+00 >=   1.231488789e+00  26.4% (2334; 6467)
+239043: mip =   1.673564000e+00 >=   1.233889216e+00  26.3% (2336; 6472)
+240450: mip =   1.673564000e+00 >=   1.233889216e+00  26.3% (2345; 6474)
+242178: mip =   1.673564000e+00 >=   1.233889216e+00  26.3% (2363; 6476)
+243828: mip =   1.673564000e+00 >=   1.233889216e+00  26.3% (2376; 6478)
+244964: mip =   1.673564000e+00 >=   1.233889216e+00  26.3% (2388; 6480)
+245726: mip =   1.673564000e+00 >=   1.233889216e+00  26.3% (2404; 6480)
+245864: mip =   1.673564000e+00 >=   1.234079250e+00  26.3% (2442; 6481)
+247534: mip =   1.673564000e+00 >=   1.234886115e+00  26.2% (2460; 6485)
+249189: mip =   1.673564000e+00 >=   1.235320059e+00  26.2% (2508; 6488)
+251255: mip =   1.673564000e+00 >=   1.235550907e+00  26.2% (2517; 6491)
Time used: 1082.3 secs.  Memory used: 160.7 Mb.
+253840: mip =   1.673564000e+00 >=   1.236134538e+00  26.1% (2523; 6498)
+255099: mip =   1.673564000e+00 >=   1.236134538e+00  26.1% (2544; 6500)
+256537: mip =   1.673564000e+00 >=   1.237027839e+00  26.1% (2552; 6503)
+258357: mip =   1.673564000e+00 >=   1.237409842e+00  26.1% (2561; 6507)
+259368: mip =   1.673564000e+00 >=   1.237409842e+00  26.1% (2616; 6510)
+261358: mip =   1.673564000e+00 >=   1.239900979e+00  25.9% (2637; 6517)
+263310: mip =   1.673564000e+00 >=   1.240216353e+00  25.9% (2648; 6520)
+264270: mip =   1.673564000e+00 >=   1.240749923e+00  25.9% (2661; 6523)
+265582: mip =   1.673564000e+00 >=   1.241060097e+00  25.8% (2690; 6526)
+266822: mip =   1.673564000e+00 >=   1.241357211e+00  25.8% (2726; 6529)
+268291: mip =   1.673564000e+00 >=   1.241453488e+00  25.8% (2750; 6531)
Time used: 1142.4 secs.  Memory used: 160.7 Mb.
+269339: mip =   1.673564000e+00 >=   1.241937706e+00  25.8% (2793; 6533)
+271110: mip =   1.673564000e+00 >=   1.242673000e+00  25.7% (2799; 6538)
+272530: mip =   1.673564000e+00 >=   1.242673000e+00  25.7% (2806; 6540)
+273770: mip =   1.673564000e+00 >=   1.242897647e+00  25.7% (2820; 6542)
+274339: mip =   1.673564000e+00 >=   1.243057615e+00  25.7% (2834; 6542)
+276198: mip =   1.673564000e+00 >=   1.244046626e+00  25.7% (2844; 6546)
+280104: mip =   1.673564000e+00 >=   1.245304579e+00  25.6% (2852; 6554)
+280485: mip =   1.673564000e+00 >=   1.245304579e+00  25.6% (2879; 6554)
+281848: mip =   1.673564000e+00 >=   1.246051378e+00  25.5% (2897; 6557)
+283474: mip =   1.673564000e+00 >=   1.246051378e+00  25.5% (2908; 6558)
+285080: mip =   1.673564000e+00 >=   1.246051378e+00  25.5% (2923; 6560)
+286351: mip =   1.673564000e+00 >=   1.246429477e+00  25.5% (2930; 6563)
Time used: 1202.6 secs.  Memory used: 166.2 Mb.
+288571: mip =   1.673564000e+00 >=   1.248285245e+00  25.4% (2939; 6570)
+289688: mip =   1.673564000e+00 >=   1.248555353e+00  25.4% (2949; 6573)
+291918: mip =   1.673564000e+00 >=   1.249251947e+00  25.4% (2960; 6577)
+293259: mip =   1.673564000e+00 >=   1.249761025e+00  25.3% (2980; 6581)
+295076: mip =   1.673564000e+00 >=   1.251958714e+00  25.2% (2996; 6586)
+296532: mip =   1.673564000e+00 >=   1.252556721e+00  25.2% (3001; 6589)
+297332: mip =   1.673564000e+00 >=   1.252616182e+00  25.2% (3015; 6591)
+299786: mip =   1.673564000e+00 >=   1.255173000e+00  25.0% (3019; 6598)
+300331: mip =   1.673564000e+00 >=   1.255173000e+00  25.0% (3065; 6599)
+301840: mip =   1.673564000e+00 >=   1.255173000e+00  25.0% (3080; 6603)
+302687: mip =   1.673564000e+00 >=   1.255173000e+00  25.0% (3116; 6605)
+305380: mip =   1.673564000e+00 >=   1.255173000e+00  25.0% (3126; 6609)
Time used: 1262.9 secs.  Memory used: 172.9 Mb.
+306248: mip =   1.673564000e+00 >=   1.255173000e+00  25.0% (3151; 6610)
+306781: mip =   1.673564000e+00 >=   1.255173000e+00  25.0% (3187; 6611)
+308768: mip =   1.673564000e+00 >=   1.255173000e+00  25.0% (3197; 6615)
+309507: mip =   1.673564000e+00 >=   1.255173000e+00  25.0% (3213; 6616)
+311781: mip =   1.673564000e+00 >=   1.255173000e+00  25.0% (3229; 6619)
+312928: mip =   1.673564000e+00 >=   1.255173000e+00  25.0% (3245; 6621)
+313572: mip =   1.673564000e+00 >=   1.255173000e+00  25.0% (3262; 6623)
+314501: mip =   1.673564000e+00 >=   1.255173000e+00  25.0% (3303; 6624)
+315568: mip =   1.673564000e+00 >=   1.255173000e+00  25.0% (3324; 6626)
+317272: mip =   1.673564000e+00 >=   1.255173000e+00  25.0% (3332; 6627)
+318389: mip =   1.673564000e+00 >=   1.255173000e+00  25.0% (3372; 6629)
Time used: 1323.0 secs.  Memory used: 181.1 Mb.
+319550: mip =   1.673564000e+00 >=   1.255173000e+00  25.0% (3384; 6631)
+321560: mip =   1.673564000e+00 >=   1.256332794e+00  24.9% (3396; 6635)
+323121: mip =   1.673564000e+00 >=   1.256803435e+00  24.9% (3405; 6639)
+324644: mip =   1.673564000e+00 >=   1.258213541e+00  24.8% (3418; 6642)
+327022: mip =   1.673564000e+00 >=   1.258582091e+00  24.8% (3435; 6646)
+329327: mip =   1.673564000e+00 >=   1.258802032e+00  24.8% (3445; 6650)
+330158: mip =   1.673564000e+00 >=   1.259762419e+00  24.7% (3459; 6652)
+332023: mip =   1.673564000e+00 >=   1.261184450e+00  24.6% (3468; 6657)
+333310: mip =   1.673564000e+00 >=   1.261309364e+00  24.6% (3484; 6658)
+334646: >>>>>   1.367673000e+00 >=   1.261601571e+00   7.8% (3499; 6662)
+335728: mip =   1.367673000e+00 >=   1.262353851e+00   7.7% (422; 12808)
+337227: mip =   1.367673000e+00 >=   1.263485808e+00   7.6% (426; 12813)
Time used: 1383.4 secs.  Memory used: 186.6 Mb.
+337333: mip =   1.367673000e+00 >=   1.263485808e+00   7.6% (435; 12813)
+338620: mip =   1.367673000e+00 >=   1.264419575e+00   7.5% (441; 12817)
+339195: mip =   1.367673000e+00 >=   1.265233976e+00   7.5% (451; 12819)
+341470: mip =   1.367673000e+00 >=   1.272218455e+00   7.0% (437; 12856)
+342392: mip =   1.367673000e+00 >=   1.275025941e+00   6.8% (435; 12872)
+343345: mip =   1.367673000e+00 >=   1.275547016e+00   6.7% (439; 12882)
+344859: mip =   1.367673000e+00 >=   1.277673000e+00   6.6% (428; 12910)
+345805: mip =   1.367673000e+00 >=   1.277673000e+00   6.6% (426; 12924)
+347447: mip =   1.367673000e+00 >=   1.277673000e+00   6.6% (429; 12930)
+348156: mip =   1.367673000e+00 >=   1.277673000e+00   6.6% (433; 12932)
+349572: mip =   1.367673000e+00 >=   1.280089107e+00   6.4% (426; 12957)
+351169: mip =   1.367673000e+00 >=   1.282537865e+00   6.2% (424; 12981)
Time used: 1443.4 secs.  Memory used: 186.6 Mb.
+353565: mip =   1.367673000e+00 >=   1.287440442e+00   5.9% (407; 13024)
+355624: mip =   1.367673000e+00 >=   1.290329250e+00   5.7% (393; 13056)
+358155: mip =   1.367673000e+00 >=   1.297360500e+00   5.1% (368; 13126)
+360827: mip =   1.367673000e+00 >=   1.305044134e+00   4.6% (334; 13201)
+362952: mip =   1.367673000e+00 >=   1.311227007e+00   4.1% (311; 13265)
+364910: mip =   1.367673000e+00 >=   1.313673000e+00   3.9% (286; 13329)
+366689: mip =   1.367673000e+00 >=   1.317789115e+00   3.6% (272; 13384)
+367869: mip =   1.367673000e+00 >=   1.319024351e+00   3.6% (278; 13398)
+368885: mip =   1.367673000e+00 >=   1.321121276e+00   3.4% (269; 13442)
+369808: mip =   1.367673000e+00 >=   1.322390536e+00   3.3% (270; 13454)
+372371: mip =   1.367673000e+00 >=   1.327673000e+00   2.9% (242; 13519)
Time used: 1503.6 secs.  Memory used: 186.6 Mb.
+373276: mip =   1.367673000e+00 >=   1.330173000e+00   2.7% (233; 13564)
+374125: mip =   1.367673000e+00 >=   1.332146684e+00   2.6% (225; 13592)
+375788: mip =   1.367673000e+00 >=   1.337673000e+00   2.2% (198; 13663)
+376340: mip =   1.367673000e+00 >=   1.338452221e+00   2.1% (197; 13667)
+378527: mip =   1.367673000e+00 >=   1.346244429e+00   1.6% (143; 13848)
+380171: mip =   1.367673000e+00 >=   1.354842067e+00   0.9% (59; 14113)
+380927: mip =   1.367673000e+00 >=     tree is empty   0.0% (0; 14585)
INTEGER OPTIMAL SOLUTION FOUND
Time used:   1534.8 secs
Memory used: 196.3 Mb (205821230 bytes)
Writing MIP solution to '/tmp/tmpmnxecbf7.glpk.raw'...
91717 lines were written

Time in solver (for this epsilon): 1535.0366520881653 s
Elapsed time (for this epsilon): 1536.6613671779633 s


Total elapsed time since execution of first epsilon: 133316.84093880653 s

Results:

E = 1.367673 mA
C = 50.0 points
C ~= 20.0 km^2

Minimum Epsilon for this instance = 10
Maximum Epsilon for this instance = 100

Current Epsilon = 50


Instance Epsilon Preprocessing Time: 0.005461692810058594 s


Updated solution vectors:
sol_E = [-0.9176730000000001,1.223564,-1.367673,-1.367673,-1.367673]
sol_C = [11.0,20.0,33.0,43.0,50.0]
sol_eps = [10,20,30,40,50]
sol_gap = [0.0,25.0,0.0,0.0,0.0]
